Traveling Salesman Problem/TSP_generados/Aleatorio1620390917_8.tsp
NAME: Aleatorio1620390917_8.tsp
COMMENT: Randomly generated scenario
TYPE: TSP
DIMENSION: 8
EDGE_WEIGHT_TYPE: ATT
NODE_COORD_SECTION
1 14.73 18.59
2 11.73 6.9
3 4.05 34.72
4 36.14 9.54
5 38.6 40.54
6 33.39 6.36
7 28.36 22.11
8 18.39 7.35
