Traveling Salesman Problem/TSP_generados/Aleatorio1620390917_8.opt.tour
NAME: Aleatorio1620390917_8.opt.tour
COMMENT: Optimal solution for Aleatorio1620390917_8 (128.22938412865494)
TYPE: TOUR
DIMENSION: 8
TOUR_SECTION
1 2 8 6 4 7 5 3
-1
EOF
